
        $ From http://www.csplib.org/Problems/prob009/data/helmut.pdf
        $ Problem number 149
        $ Sequence length : 25
        language ESSENCE' 1.0
        letting sizemaster be 507
        letting sizes be sequence(2,3,7,11,13,15,28,34,43,50,57,64,80,83,86,89,107,115,116,127,149,163,175,183,217)
        